p wcnf 128 256 257 
1 -39 -106 0 
1 -70 -59 0 
1 -114 60 0 
1 -15 -6 0 
1 27 93 0 
1 -119 66 0 
1 -77 -119 0 
1 -1 -42 0 
1 -6 -2 0 
1 -90 69 0 
1 94 -12 0 
1 72 -108 0 
1 49 -20 0 
1 126 -57 0 
1 70 -112 0 
1 -26 -64 0 
1 -102 -25 0 
1 45 -97 0 
1 3 126 0 
1 124 100 0 
1 -17 91 0 
1 82 -71 0 
1 -58 105 0 
1 -92 -127 0 
1 -92 -76 0 
1 116 3 0 
1 -113 -79 0 
1 35 89 0 
1 119 -88 0 
1 -77 107 0 
1 -73 -55 0 
1 32 41 0 
1 11 -74 0 
1 -72 37 0 
1 58 67 0 
1 86 117 0 
1 6 -71 0 
1 -41 -43 0 
1 -2 50 0 
1 111 90 0 
1 95 82 0 
1 -34 -76 0 
1 24 15 0 
1 76 74 0 
1 85 -117 0 
1 66 -60 0 
1 41 11 0 
1 45 -109 0 
1 -32 -127 0 
1 124 7 0 
1 5 -52 0 
1 91 -40 0 
1 -55 109 0 
1 -75 -68 0 
1 55 9 0 
1 -59 -81 0 
1 12 33 0 
1 -79 59 0 
1 44 116 0 
1 26 77 0 
1 41 -123 0 
1 -91 -46 0 
1 -85 105 0 
1 -83 -107 0 
1 18 -46 0 
1 21 -70 0 
1 -1 -19 0 
1 -31 -14 0 
1 -55 -76 0 
1 30 52 0 
1 107 29 0 
1 -120 -50 0 
1 77 -78 0 
1 -58 -2 0 
1 4 77 0 
1 -47 112 0 
1 93 37 0 
1 112 -120 0 
1 89 51 0 
1 64 -128 0 
1 -114 -67 0 
1 -90 105 0 
1 -111 -66 0 
1 97 51 0 
1 88 -106 0 
1 -24 -54 0 
1 92 113 0 
1 46 -22 0 
1 -49 -128 0 
1 -59 -48 0 
1 -21 97 0 
1 68 23 0 
1 -50 -71 0 
1 115 -114 0 
1 -40 44 0 
1 -23 -47 0 
1 -93 56 0 
1 41 -65 0 
1 -104 53 0 
1 9 -115 0 
1 58 -126 0 
1 -128 -82 0 
1 -6 26 0 
1 -88 95 0 
1 -41 -66 0 
1 29 51 0 
1 66 -22 0 
1 -51 -83 0 
1 28 -4 0 
1 44 80 0 
1 -13 -26 0 
1 -28 -117 0 
1 -94 32 0 
1 7 92 0 
1 -94 -98 0 
1 73 -77 0 
1 34 25 0 
1 58 49 0 
1 -105 58 0 
1 83 -20 0 
1 -24 14 0 
1 -61 54 0 
1 66 -113 0 
1 3 46 0 
1 10 -3 0 
1 57 -17 0 
1 88 4 0 
1 -65 80 0 
1 -71 105 0 
1 -1 99 0 
1 49 56 0 
1 15 83 0 
1 -109 94 0 
1 106 -2 0 
1 -6 -124 0 
1 -86 119 0 
1 100 53 0 
1 -53 -102 0 
1 3 7 0 
1 -6 36 0 
1 74 105 0 
1 -15 14 0 
1 102 -85 0 
1 91 -116 0 
1 80 -41 0 
1 65 -119 0 
1 77 -28 0 
1 -26 34 0 
1 90 -55 0 
1 -15 46 0 
1 86 -79 0 
1 68 61 0 
1 3 56 0 
1 41 -19 0 
1 75 -41 0 
1 -78 62 0 
1 -38 18 0 
1 71 30 0 
1 -70 -60 0 
1 11 9 0 
1 -120 84 0 
1 23 83 0 
1 -14 -98 0 
1 -87 18 0 
1 80 124 0 
1 126 -108 0 
1 33 -126 0 
1 52 -44 0 
1 -84 -82 0 
1 110 -57 0 
1 101 19 0 
1 119 -52 0 
1 -107 125 0 
1 -51 -13 0 
1 -54 29 0 
1 -2 -66 0 
1 -125 -120 0 
1 -75 -109 0 
1 -117 -53 0 
1 73 39 0 
1 75 7 0 
1 5 63 0 
1 114 -112 0 
1 77 -52 0 
1 75 21 0 
1 65 26 0 
1 2 110 0 
1 -101 -55 0 
1 -77 -90 0 
1 -121 50 0 
1 -26 73 0 
1 90 48 0 
1 89 -62 0 
1 77 22 0 
1 -67 -119 0 
1 108 82 0 
1 109 -27 0 
1 44 -49 0 
1 -104 93 0 
1 83 -55 0 
1 -3 80 0 
1 -77 111 0 
1 -113 112 0 
1 82 101 0 
1 -123 36 0 
1 -113 54 0 
1 59 -94 0 
1 -74 -102 0 
1 -115 48 0 
1 -83 122 0 
1 11 -81 0 
1 5 -107 0 
1 -109 60 0 
1 53 -22 0 
1 -78 46 0 
1 -63 -114 0 
1 -38 -2 0 
1 26 -35 0 
1 90 72 0 
1 -8 -13 0 
1 63 56 0 
1 -96 105 0 
1 -97 -112 0 
1 2 40 0 
1 18 112 0 
1 45 68 0 
1 -73 56 0 
1 40 9 0 
1 77 1 0 
1 18 -44 0 
1 34 82 0 
1 -45 97 0 
1 101 -51 0 
1 -15 89 0 
1 107 113 0 
1 42 -21 0 
1 12 20 0 
1 -22 -34 0 
1 46 -52 0 
1 -124 119 0 
1 -38 46 0 
1 -104 -59 0 
1 -46 58 0 
1 -4 -82 0 
1 19 23 0 
1 104 -41 0 
1 -45 -118 0 
1 6 68 0 
1 -58 -4 0 
1 -87 28 0 
1 84 86 0 
1 68 69 0 
1 65 37 0 
1 -42 26 0 
1 96 71 0 
1 123 -104 0 
